projected/problems_b25_r0_d7_m100_s666/_DIMACS/b25_d7_r0_s666_045.cnf
p cnf 219 335 25
c p show 1 2 3 4 5 6 7 8 9 10 11 12 13 14 15 16 17 18 19 20 21 22 23 24 25
-26 -2 0
-26 10 0
-27 -17 0
-27 -10 0
-28 27 26 0
-29 6 -17 0
-30 -5 -7 0
-31 30 29 0
-32 31 0
-32 28 0
-33 3 0
-33 -24 0
-34 2 0
-34 13 0
-35 34 0
-35 33 0
-36 13 -14 0
-37 2 22 0
-38 -22 -2 0
-39 38 0
-39 37 0
-40 39 0
-40 36 0
-41 40 0
-41 35 0
-42 41 0
-42 32 0
-43 -3 17 0
-44 -13 2 0
-45 44 0
-45 43 0
-46 -5 0
-46 17 0
-47 -15 0
-47 -21 0
-48 47 46 0
-49 48 45 0
-50 2 0
-50 18 0
-51 22 -16 0
-52 51 50 0
-53 16 0
-53 -9 0
-54 -18 0
-54 21 0
-55 54 0
-55 53 0
-56 55 52 0
-57 56 49 0
-58 57 0
-58 42 0
-59 -2 14 0
-60 7 0
-60 -5 0
-61 60 59 0
-62 -15 -6 0
-63 -15 1 0
-64 63 0
-64 62 0
-65 64 61 0
-66 -19 -21 0
-67 21 19 0
-68 67 0
-68 66 0
-69 19 0
-69 -13 0
-70 69 0
-70 68 0
-71 -23 0
-71 -1 0
-72 1 0
-72 23 0
-73 72 71 0
-74 -15 0
-74 20 0
-75 74 0
-75 73 0
-76 75 0
-76 70 0
-77 76 65 0
-78 9 21 0
-79 3 -5 0
-80 79 78 0
-81 3 0
-81 16 0
-82 5 0
-82 -14 0
-83 82 0
-83 81 0
-84 83 80 0
-85 -7 2 0
-86 -22 0
-87 86 0
-87 85 0
-88 22 0
-89 7 0
-89 -2 0
-90 89 0
-90 88 0
-91 90 87 0
-92 -7 0
-92 -17 0
-93 14 -6 0
-94 93 92 0
-95 -14 0
-95 6 0
-96 7 17 0
-97 96 95 0
-98 97 0
-98 94 0
-99 98 91 0
-100 99 84 0
-101 100 77 0
-102 101 0
-102 58 0
-103 -20 -9 0
-104 -12 1 0
-105 104 103 0
-106 -1 -23 0
-107 23 1 0
-108 107 0
-108 106 0
-109 15 0
-109 22 0
-110 109 0
-110 108 0
-111 110 0
-111 105 0
-112 71 72 0
-113 -15 -22 0
-114 113 112 0
-115 20 0
-115 9 0
-116 12 0
-116 -1 0
-117 116 0
-117 115 0
-118 117 0
-118 114 0
-119 118 111 0
-120 -7 6 0
-121 -4 -15 0
-122 15 4 0
-123 122 0
-123 121 0
-124 123 0
-124 120 0
-125 -20 -17 0
-126 4 0
-126 -25 0
-127 126 0
-127 125 0
-128 127 0
-128 124 0
-129 128 119 0
-130 21 17 0
-131 16 0
-131 22 0
-132 131 130 0
-133 5 0
-133 23 0
-134 -16 -21 0
-135 21 16 0
-136 135 0
-136 134 0
-137 136 0
-137 133 0
-138 137 132 0
-139 -13 0
-139 16 0
-140 15 0
-140 -17 0
-141 140 0
-141 139 0
-142 18 12 0
-143 -15 0
-143 -3 0
-144 143 142 0
-145 144 0
-145 141 0
-146 145 138 0
-147 13 -16 0
-148 -15 17 0
-149 148 147 0
-150 -18 0
-150 -12 0
-151 15 3 0
-152 151 0
-152 150 0
-153 152 149 0
-154 -21 0
-154 -17 0
-155 -16 -22 0
-156 155 0
-156 154 0
-157 -5 -23 0
-158 16 0
-158 21 0
-159 -21 0
-159 -16 0
-160 159 158 0
-161 160 157 0
-162 161 0
-162 156 0
-163 162 153 0
-164 163 0
-164 146 0
-165 164 129 0
-166 4 0
-166 -13 0
-167 13 0
-167 -4 0
-168 167 166 0
-169 -17 -2 0
-170 2 17 0
-171 170 0
-171 169 0
-172 171 168 0
-173 17 0
-173 2 0
-174 -2 0
-174 -17 0
-175 174 173 0
-176 -4 13 0
-177 -13 4 0
-178 177 0
-178 176 0
-179 178 175 0
-180 179 0
-180 172 0
-181 11 7 0
-182 12 -20 0
-183 182 181 0
-184 183 180 0
-185 17 11 0
-186 -25 0
-186 -18 0
-187 186 0
-187 185 0
-188 1 -8 0
-189 8 -1 0
-190 189 0
-190 188 0
-191 -15 -19 0
-192 191 0
-192 190 0
-193 192 0
-193 187 0
-194 193 184 0
-195 3 0
-195 14 0
-196 -9 -10 0
-197 196 195 0
-198 -2 0
-198 1 0
-199 -20 5 0
-200 199 0
-200 198 0
-201 200 0
-201 197 0
-202 -9 -17 0
-203 -2 0
-203 -25 0
-204 203 202 0
-205 -5 0
-205 18 0
-206 -3 -7 0
-207 206 205 0
-208 207 204 0
-209 5 -18 0
-210 3 0
-210 7 0
-211 210 0
-211 209 0
-212 9 0
-212 17 0
-213 2 25 0
-214 213 0
-214 212 0
-215 214 211 0
-216 215 0
-216 208 0
-217 216 0
-217 201 0
-218 217 0
-218 194 0
-219 218 0
-219 165 0
219 0
102 0
-88 -86 0
-86 -88 0
-89 -85 0
-93 -95 0
-95 -93 0
-92 -96 0
-108 -112 0
-109 -113 0
-110 -114 0
-103 -115 0
-104 -116 0
-105 -117 0
-117 -105 0
-147 -139 0
-140 -148 0
-148 -140 0
-149 -141 0
-142 -150 0
-150 -142 0
-151 -143 0
-152 -144 0
-153 -145 0
-130 -154 0
-154 -130 0
-131 -155 0
-155 -131 0
-156 -132 0
-132 -156 0
-157 -133 0
-133 -157 0
-136 -160 0
-137 -161 0
-138 -162 0
-171 -175 0
-175 -171 0
-178 -168 0
-168 -178 0
-205 -209 0
-209 -205 0
-210 -206 0
-211 -207 0
-202 -212 0
-213 -203 0
-203 -213 0
-204 -214 0
