projected/problems_b25_r0_d7_m100_s666/b25_d7_r0_s666_045.smt2
(set-logic QF_UF)
(declare-fun A0 () Bool)
(declare-fun A1 () Bool)
(declare-fun A2 () Bool)
(declare-fun A3 () Bool)
(declare-fun A4 () Bool)
(declare-fun A5 () Bool)
(declare-fun A6 () Bool)
(declare-fun A7 () Bool)
(declare-fun A8 () Bool)
(declare-fun A9 () Bool)
(declare-fun A10 () Bool)
(declare-fun A11 () Bool)
(declare-fun A12 () Bool)
(declare-fun A13 () Bool)
(declare-fun A14 () Bool)
(declare-fun A15 () Bool)
(declare-fun A16 () Bool)
(declare-fun A17 () Bool)
(declare-fun A18 () Bool)
(declare-fun A19 () Bool)
(declare-fun A20 () Bool)
(declare-fun A21 () Bool)
(declare-fun A22 () Bool)
(declare-fun A23 () Bool)
(declare-fun A24 () Bool)
(assert (let ((.def_0 (not A9))) (let ((.def_1 (or A1 .def_0))) (let ((.def_2 (not A16))) (let ((.def_3 (and .def_2 .def_0))) (let ((.def_4 (not .def_3))) (let ((.def_5 (and .def_4 .def_1))) (let ((.def_6 (not .def_5))) (let ((.def_7 (or A5 .def_2))) (let ((.def_8 (not .def_7))) (let ((.def_9 (and A4 A6))) (let ((.def_10 (and .def_9 .def_8))) (let ((.def_11 (not .def_10))) (let ((.def_12 (and .def_11 .def_6))) (let ((.def_13 (not .def_12))) (let ((.def_14 (not A2))) (let ((.def_15 (or .def_14 A23))) (let ((.def_16 (not .def_15))) (let ((.def_17 (and A1 A12))) (let ((.def_18 (and .def_17 .def_16))) (let ((.def_19 (not A12))) (let ((.def_20 (and .def_19 A13))) (let ((.def_21 (not A1))) (let ((.def_22 (= A21 .def_21))) (let ((.def_23 (not .def_22))) (let ((.def_24 (or .def_23 .def_20))) (let ((.def_25 (not .def_24))) (let ((.def_26 (and .def_25 .def_18))) (let ((.def_27 (not .def_26))) (let ((.def_28 (or .def_27 .def_13))) (let ((.def_29 (or .def_14 A16))) (let ((.def_30 (not .def_29))) (let ((.def_31 (and A12 .def_21))) (let ((.def_32 (or .def_31 .def_30))) (let ((.def_33 (or A4 .def_2))) (let ((.def_34 (or A14 A20))) (let ((.def_35 (and .def_34 .def_33))) (let ((.def_36 (and .def_35 .def_32))) (let ((.def_37 (not A17))) (let ((.def_38 (or .def_21 .def_37))) (let ((.def_39 (not A15))) (let ((.def_40 (or A21 .def_39))) (let ((.def_41 (not .def_40))) (let ((.def_42 (and .def_41 .def_38))) (let ((.def_43 (not A8))) (let ((.def_44 (and A15 .def_43))) (let ((.def_45 (and .def_37 A20))) (let ((.def_46 (and .def_45 .def_44))) (let ((.def_47 (not .def_46))) (let ((.def_48 (and .def_47 .def_42))) (let ((.def_49 (and .def_48 .def_36))) (let ((.def_50 (or .def_49 .def_28))) (let ((.def_51 (not A13))) (let ((.def_52 (and A1 .def_51))) (let ((.def_53 (not A6))) (let ((.def_54 (or .def_53 A4))) (let ((.def_55 (and .def_54 .def_52))) (let ((.def_56 (not A5))) (let ((.def_57 (not A14))) (let ((.def_58 (or .def_57 .def_56))) (let ((.def_59 (or .def_57 A0))) (let ((.def_60 (and .def_59 .def_58))) (let ((.def_61 (not .def_60))) (let ((.def_62 (and .def_61 .def_55))) (let ((.def_63 (not .def_62))) (let ((.def_64 (not A20))) (let ((.def_65 (= .def_64 A18))) (let ((.def_66 (not A18))) (let ((.def_67 (or .def_66 A12))) (let ((.def_68 (not .def_67))) (let ((.def_69 (and .def_68 .def_65))) (let ((.def_70 (not A22))) (let ((.def_71 (= A0 .def_70))) (let ((.def_72 (not A19))) (let ((.def_73 (or A14 .def_72))) (let ((.def_74 (or .def_73 .def_71))) (let ((.def_75 (not .def_74))) (let ((.def_76 (and .def_75 .def_69))) (let ((.def_77 (or .def_76 .def_63))) (let ((.def_78 (not .def_77))) (let ((.def_79 (or A8 A20))) (let ((.def_80 (not .def_79))) (let ((.def_81 (and .def_14 A4))) (let ((.def_82 (and .def_81 .def_80))) (let ((.def_83 (or .def_14 .def_39))) (let ((.def_84 (not A4))) (let ((.def_85 (or .def_84 A13))) (let ((.def_86 (or .def_85 .def_83))) (let ((.def_87 (and .def_86 .def_82))) (let ((.def_88 (not .def_87))) (let ((.def_89 (or A21 A21))) (let ((.def_90 (not .def_89))) (let ((.def_91 (and A6 .def_21))) (let ((.def_92 (= .def_91 .def_90))) (let ((.def_93 (or A13 .def_56))) (let ((.def_94 (not .def_93))) (let ((.def_95 (and .def_53 .def_2))) (let ((.def_96 (= .def_95 .def_94))) (let ((.def_97 (not .def_96))) (let ((.def_98 (and .def_97 .def_92))) (let ((.def_99 (not .def_98))) (let ((.def_100 (or .def_99 .def_88))) (let ((.def_101 (not .def_100))) (let ((.def_102 (and .def_101 .def_78))) (let ((.def_103 (or .def_102 .def_50))) (let ((.def_104 (= .def_70 A0))) (let ((.def_105 (and A14 A21))) (let ((.def_106 (and .def_105 .def_104))) (let ((.def_107 (or .def_72 .def_43))) (let ((.def_108 (not A11))) (let ((.def_109 (or .def_108 A0))) (let ((.def_110 (or .def_109 .def_107))) (let ((.def_111 (not .def_110))) (let ((.def_112 (= .def_111 .def_106))) (let ((.def_113 (or .def_53 A5))) (let ((.def_114 (not .def_113))) (let ((.def_115 (= .def_57 A3))) (let ((.def_116 (not .def_115))) (let ((.def_117 (or .def_116 .def_114))) (let ((.def_118 (or .def_72 .def_2))) (let ((.def_119 (not .def_118))) (let ((.def_120 (not A3))) (let ((.def_121 (or .def_120 A24))) (let ((.def_122 (or .def_121 .def_119))) (let ((.def_123 (or .def_122 .def_117))) (let ((.def_124 (and .def_123 .def_112))) (let ((.def_125 (not .def_124))) (let ((.def_126 (or A12 .def_39))) (let ((.def_127 (and A14 .def_2))) (let ((.def_128 (not .def_127))) (let ((.def_129 (or .def_128 .def_126))) (let ((.def_130 (or A17 A11))) (let ((.def_131 (not .def_130))) (let ((.def_132 (or A14 A2))) (let ((.def_133 (and .def_132 .def_131))) (let ((.def_134 (or .def_133 .def_129))) (let ((.def_135 (or A20 A16))) (let ((.def_136 (not .def_135))) (let ((.def_137 (and A15 A21))) (let ((.def_138 (not .def_137))) (let ((.def_139 (and .def_138 .def_136))) (let ((.def_140 (not .def_139))) (let ((.def_141 (or .def_84 .def_70))) (let ((.def_142 (not .def_141))) (let ((.def_143 (= .def_64 A15))) (let ((.def_144 (and .def_143 .def_142))) (let ((.def_145 (or .def_144 .def_140))) (let ((.def_146 (= .def_145 .def_134))) (let ((.def_147 (or .def_146 .def_125))) (let ((.def_148 (not .def_147))) (let ((.def_149 (= .def_21 A16))) (let ((.def_150 (not .def_149))) (let ((.def_151 (= A12 A3))) (let ((.def_152 (not .def_151))) (let ((.def_153 (= .def_152 .def_150))) (let ((.def_154 (not .def_153))) (let ((.def_155 (not A10))) (let ((.def_156 (and .def_155 .def_53))) (let ((.def_157 (not .def_156))) (let ((.def_158 (or A11 .def_72))) (let ((.def_159 (or .def_158 .def_157))) (let ((.def_160 (not .def_159))) (let ((.def_161 (and .def_160 .def_154))) (let ((.def_162 (not .def_161))) (let ((.def_163 (and .def_2 .def_155))) (let ((.def_164 (or A24 A17))) (let ((.def_165 (or .def_164 .def_163))) (let ((.def_166 (not A0))) (let ((.def_167 (not A7))) (let ((.def_168 (= .def_167 .def_166))) (let ((.def_169 (not .def_168))) (let ((.def_170 (and A14 A18))) (let ((.def_171 (or .def_170 .def_169))) (let ((.def_172 (or .def_171 .def_165))) (let ((.def_173 (not .def_172))) (let ((.def_174 (or .def_173 .def_162))) (let ((.def_175 (and A2 A13))) (let ((.def_176 (not .def_175))) (let ((.def_177 (or .def_43 .def_0))) (let ((.def_178 (not .def_177))) (let ((.def_179 (and .def_178 .def_176))) (let ((.def_180 (not .def_179))) (let ((.def_181 (or A1 .def_166))) (let ((.def_182 (not .def_181))) (let ((.def_183 (and A19 .def_84))) (let ((.def_184 (not .def_183))) (let ((.def_185 (and .def_184 .def_182))) (let ((.def_186 (and .def_185 .def_180))) (let ((.def_187 (not .def_186))) (let ((.def_188 (and .def_84 A17))) (let ((.def_189 (not .def_188))) (let ((.def_190 (and A2 A6))) (let ((.def_191 (and .def_190 .def_189))) (let ((.def_192 (or .def_43 .def_2))) (let ((.def_193 (or A1 A24))) (let ((.def_194 (not .def_193))) (let ((.def_195 (or .def_194 .def_192))) (let ((.def_196 (= .def_195 .def_191))) (let ((.def_197 (not .def_196))) (let ((.def_198 (or .def_197 .def_187))) (let ((.def_199 (not .def_198))) (let ((.def_200 (and .def_199 .def_174))) (let ((.def_201 (not .def_200))) (let ((.def_202 (or .def_201 .def_148))) (let ((.def_203 (or .def_202 .def_103))) (let ((.def_204 (not .def_203))) .def_204))))))))))))))))))))))))))))))))))))))))))))))))))))))))))))))))))))))))))))))))))))))))))))))))))))))))))))))))))))))))))))))))))))))))))))))))))))))))))))))))))))))))))))))))))))))))))))))))))))))))))))))
(check-sat)
